
Gurobi 13.0.2 (win64) logging started Thu Jul 23 05:01:20 2026

Set parameter LogFile to value "E:\codes\ExactEBRP\results\gf_cplex_equivalent_gurobi_replica_round28\runs\stage2__V12_M1__c3_replica__300s\external\native_logs\R.1.0.0.0.0.1.1.0.0.1_terminal_mip.gurobi.log"
Gurobi Optimizer version 13.0.2 build v13.0.2rc1 (win64 - Windows 10.0 (19045.2))

CPU model: 12th Gen Intel(R) Core(TM) i7-12700KF, instruction set [SSE2|AVX|AVX2]
Thread count: 12 physical cores, 20 logical processors, using up to 1 threads

Non-default parameters:
TimeLimit  263.9456283
MIPGap  0
MIPGapAbs  0
LogToConsole  0
Threads  1

Optimize a model with 6225 rows, 648 columns and 59365 nonzeros (Min)
Model fingerprint: 0xcbbdc707
Model has 13 linear objective coefficients
Variable types: 347 continuous, 301 integer (253 binary)
Coefficient statistics:
  Matrix range     [2e-03, 1e+05]
  Objective range  [2e-03, 1e+00]
  Bounds range     [1e-01, 8e+01]
  RHS range        [3e-02, 1e+06]

Presolve removed 736 rows and 27 columns
Presolve time: 0.13s
Presolved: 5489 rows, 621 columns, 58793 nonzeros
Variable types: 321 continuous, 300 integer (252 binary)

Root relaxation: objective 3.239787e-01, 832 iterations, 0.06 seconds (0.20 work units)

    Nodes    |    Current Node    |     Objective Bounds      |     Work
 Expl Unexpl |  Obj  Depth IntInf | Incumbent    BestBd   Gap | It/Node Time

     0     0    0.32398    0  105          -    0.32398      -     -    0s
     0     0 infeasible    0               - infeasible      -     -    0s

Cutting planes:
  Learned: 2
  Gomory: 10
  Cover: 21
  Implied bound: 57
  Clique: 29
  MIR: 85
  StrongCG: 7
  Flow cover: 21
  GUB cover: 2
  Zero half: 6
  Network: 1
  RLT: 15
  Relax-and-lift: 6
  BQP: 4
  PSD: 5

Explored 1 nodes (1058 simplex iterations) in 0.55 seconds (0.80 work units)
Thread count was 1 (of 20 available processors)

Solution count 0

Model is infeasible
Best objective -, best bound -, gap -

User-callback calls 733, time in user-callback 0.00 sec
